40, 4977
2909, 64
3859, 51
2574, 49
2019, 48
1519, 71
1592, 5
3927, 76
3673, 25
5208, 65
1678, 19
4230, 61
4886, 16
3159, 89
1134, 48
1469, 88
5298, 69
5727, 75
2899, 44
4605, 32
3713, 90
5957, 65
1125, 3
1212, 6
1637, 99
5742, 6
5350, 38
4158, 25
5632, 83
5443, 66
5807, 73
5899, 89
5329, 9
1050, 27
3976, 15
5969, 60
1561, 46
4049, 62
4434, 98
2707, 80
4962, 75